NAME : mEgtspf.pid31452.gtsp.156061378.tour
COMMENT : Length = 156061378
COMMENT : Found by LKH [Keld Helsgaun] Fri Mar  7 02:56:30 2025
TYPE : TOUR
DIMENSION : 90
TOUR_SECTION
1
36
37
38
35
9
65
66
63
64
32
33
34
31
80
81
82
79
72
73
74
71
3
26
23
24
25
70
67
68
69
28
29
30
27
88
89
90
87
18
15
16
17
49
50
47
48
5
20
21
22
19
4
7
2
46
43
44
45
13
14
11
12
10
83
84
85
86
8
6
55
56
57
58
75
76
77
78
52
53
54
51
42
39
40
41
59
60
61
62
-1
EOF
